SCIP version 8.0.0 [precision: 8 byte] [memory: block] [mode: optimized] [LP solver: SoPlex 6.0.0] [GitHash: a740f0891e]
Copyright (C) 2002-2021 Konrad-Zuse-Zentrum fuer Informationstechnik Berlin (ZIB)

read problem </home/danilo/cbc-test-set/v150d30-2hopcds.mps.gz> ...

original problem has 150 variables (150 bin, 0 int, 0 impl, 0 cont) and 7822 constraints
solve problem ...

presolving:
   Deactivated symmetry handling methods, since SCIP was built without symmetry detector (SYM=none).
presolving (0 rounds: 0 fast, 0 medium, 0 exhaustive):
 0 deleted vars, 0 deleted constraints, 0 added constraints, 0 tightened bounds, 0 added holes, 0 changed sides, 0 changed coefficients
 0 implications, 0 cliques
presolved problem has 150 variables (150 bin, 0 int, 0 impl, 0 cont) and 7822 constraints
   7822 constraints of type <linear>
transformed objective value is always integral (scale: 1)
Presolving Time: 0.00

 time | node  | left  |LP iter|LP it/n|mem/heur|mdpt |vars |cons |rows |cuts |sepa|confs|strbr|  dualbound   | primalbound  |  gap   | compl. 
  0.4s|     1 |     0 |  1510 |     - |    35M |   0 | 150 |6228 |6228 |   0 |  0 |   0 |   0 | 2.761749e+01 |      --      |    Inf | unknown
* 0.4s|     1 |     0 |  1510 |     - |strongbr|   0 | 150 |6228 |6228 |   0 |  1 |   0 |   0 | 2.761749e+01 | 1.140000e+02 | 312.78%| unknown
* 0.5s|     1 |     0 |  1510 |     - |strongbr|   0 | 150 |6228 |6228 |   0 |  1 |   0 |   1 | 2.761749e+01 | 1.140000e+02 | 312.78%| unknown
* 0.8s|     1 |     0 |  1510 |     - |strongbr|   0 | 150 |6228 |6228 |   0 |  1 |   0 |   6 | 2.761749e+01 | 1.130000e+02 | 309.16%| unknown
* 1.2s|     1 |     0 |  1510 |     - |strongbr|   0 | 150 |6228 |6228 |   0 |  1 |   0 |  11 | 2.761749e+01 | 1.100000e+02 | 298.30%| unknown
  3.0s|     1 |     2 |  1510 |     - |    36M |   0 | 150 |6228 |6228 |   0 |  1 |   0 |  45 | 2.804533e+01 | 1.100000e+02 | 292.22%| unknown

SCIP Status        : solving was interrupted [node limit reached]
Solving Time (sec) : 3.01
Solving Nodes      : 1
Primal Bound       : +1.10000000000000e+02 (90 solutions)
Dual Bound         : +2.80453263267650e+01
Gap                : 292.22 %
primal solution:
objective value:                                  110
C148                                                1 	(obj:1)
C1                                                  1 	(obj:1)
C2                                                  1 	(obj:1)
C3                                                  1 	(obj:1)
C4                                                  1 	(obj:1)
C5                                                  1 	(obj:1)
C7                                                  1 	(obj:1)
C8                                                  1 	(obj:1)
C9                                                  1 	(obj:1)
C10                                                 1 	(obj:1)
C11                                                 1 	(obj:1)
C12                                                 1 	(obj:1)
C13                                                 1 	(obj:1)
C14                                                 1 	(obj:1)
C15                                                 1 	(obj:1)
C16                                                 1 	(obj:1)
C17                                                 1 	(obj:1)
C19                                                 1 	(obj:1)
C20                                                 1 	(obj:1)
C21                                                 1 	(obj:1)
C23                                                 1 	(obj:1)
C24                                                 1 	(obj:1)
C25                                                 1 	(obj:1)
C26                                                 1 	(obj:1)
C29                                                 1 	(obj:1)
C30                                                 1 	(obj:1)
C31                                                 1 	(obj:1)
C32                                                 1 	(obj:1)
C33                                                 1 	(obj:1)
C36                                                 1 	(obj:1)
C37                                                 1 	(obj:1)
C38                                                 1 	(obj:1)
C39                                                 1 	(obj:1)
C42                                                 1 	(obj:1)
C43                                                 1 	(obj:1)
C45                                                 1 	(obj:1)
C46                                                 1 	(obj:1)
C47                                                 1 	(obj:1)
C48                                                 1 	(obj:1)
C49                                                 1 	(obj:1)
C50                                                 1 	(obj:1)
C51                                                 1 	(obj:1)
C54                                                 1 	(obj:1)
C56                                                 1 	(obj:1)
C57                                                 1 	(obj:1)
C58                                                 1 	(obj:1)
C62                                                 1 	(obj:1)
C64                                                 1 	(obj:1)
C65                                                 1 	(obj:1)
C67                                                 1 	(obj:1)
C68                                                 1 	(obj:1)
C70                                                 1 	(obj:1)
C71                                                 1 	(obj:1)
C72                                                 1 	(obj:1)
C73                                                 1 	(obj:1)
C74                                                 1 	(obj:1)
C75                                                 1 	(obj:1)
C76                                                 1 	(obj:1)
C77                                                 1 	(obj:1)
C78                                                 1 	(obj:1)
C79                                                 1 	(obj:1)
C81                                                 1 	(obj:1)
C82                                                 1 	(obj:1)
C83                                                 1 	(obj:1)
C84                                                 1 	(obj:1)
C85                                                 1 	(obj:1)
C87                                                 1 	(obj:1)
C88                                                 1 	(obj:1)
C89                                                 1 	(obj:1)
C91                                                 1 	(obj:1)
C92                                                 1 	(obj:1)
C93                                                 1 	(obj:1)
C94                                                 1 	(obj:1)
C95                                                 1 	(obj:1)
C97                                                 1 	(obj:1)
C98                                                 1 	(obj:1)
C99                                                 1 	(obj:1)
C101                                                1 	(obj:1)
C102                                                1 	(obj:1)
C103                                                1 	(obj:1)
C104                                                1 	(obj:1)
C105                                                1 	(obj:1)
C108                                                1 	(obj:1)
C110                                                1 	(obj:1)
C112                                                1 	(obj:1)
C114                                                1 	(obj:1)
C115                                                1 	(obj:1)
C116                                                1 	(obj:1)
C117                                                1 	(obj:1)
C118                                                1 	(obj:1)
C119                                                1 	(obj:1)
C120                                                1 	(obj:1)
C122                                                1 	(obj:1)
C123                                                1 	(obj:1)
C124                                                1 	(obj:1)
C125                                                1 	(obj:1)
C128                                                1 	(obj:1)
C129                                                1 	(obj:1)
C130                                                1 	(obj:1)
C131                                                1 	(obj:1)
C132                                                1 	(obj:1)
C133                                                1 	(obj:1)
C134                                                1 	(obj:1)
C135                                                1 	(obj:1)
C136                                                1 	(obj:1)
C139                                                1 	(obj:1)
C140                                                1 	(obj:1)
C141                                                1 	(obj:1)
C145                                                1 	(obj:1)
C146                                                1 	(obj:1)
Statistics:
SCIP Status        : solving was interrupted [node limit reached]
Total Time         :       3.08
  solving          :       3.01
  presolving       :       0.00 (included in solving)
  reading          :       0.06
  copying          :       0.00 (0 times copied the problem)
Original Problem   :
  Problem name     : v150d30-2hopcds
  Variables        : 150 (150 binary, 0 integer, 0 implicit integer, 0 continuous)
  Constraints      : 7822 initial, 7822 maximal
  Objective        : minimize, 150 non-zeros (abs.min = 1, abs.max = 1)
Presolved Problem  :
  Problem name     : t_v150d30-2hopcds
  Variables        : 150 (150 binary, 0 integer, 0 implicit integer, 0 continuous)
  Constraints      : 7822 initial, 7822 maximal
  Objective        : minimize, 150 non-zeros (abs.min = 1, abs.max = 1)
  Nonzeros         : 103991 constraint, 0 clique table
Presolvers         :   ExecTime  SetupTime  Calls  FixedVars   AggrVars   ChgTypes  ChgBounds   AddHoles    DelCons    AddCons   ChgSides   ChgCoefs
  boundshift       :       0.00       0.00      0          0          0          0          0          0          0          0          0          0
  convertinttobin  :       0.00       0.00      0          0          0          0          0          0          0          0          0          0
  domcol           :       0.00       0.00      0          0          0          0          0          0          0          0          0          0
  dualagg          :       0.00       0.00      0          0          0          0          0          0          0          0          0          0
  dualcomp         :       0.00       0.00      0          0          0          0          0          0          0          0          0          0
  dualinfer        :       0.00       0.00      0          0          0          0          0          0          0          0          0          0
  dualsparsify     :       0.00       0.00      0          0          0          0          0          0          0          0          0          0
  gateextraction   :       0.00       0.00      0          0          0          0          0          0          0          0          0          0
  implics          :       0.00       0.00      0          0          0          0          0          0          0          0          0          0
  inttobinary      :       0.00       0.00      0          0          0          0          0          0          0          0          0          0
  qpkktref         :       0.00       0.00      0          0          0          0          0          0          0          0          0          0
  redvub           :       0.00       0.00      0          0          0          0          0          0          0          0          0          0
  sparsify         :       0.00       0.00      0          0          0          0          0          0          0          0          0          0
  stuffing         :       0.00       0.00      0          0          0          0          0          0          0          0          0          0
  trivial          :       0.00       0.00      0          0          0          0          0          0          0          0          0          0
  tworowbnd        :       0.00       0.00      0          0          0          0          0          0          0          0          0          0
  dualfix          :       0.00       0.00      0          0          0          0          0          0          0          0          0          0
  genvbounds       :       0.00       0.00      0          0          0          0          0          0          0          0          0          0
  probing          :       0.00       0.00      0          0          0          0          0          0          0          0          0          0
  pseudoobj        :       0.00       0.00      0          0          0          0          0          0          0          0          0          0
  symmetry         :       0.00       0.00      0          0          0          0          0          0          0          0          0          0
  vbounds          :       0.00       0.00      0          0          0          0          0          0          0          0          0          0
  linear           :       0.00       0.01      0          0          0          0          0          0          0          0          0          0
  benders          :       0.00       0.00      0          0          0          0          0          0          0          0          0          0
  components       :       0.00       0.00      0          0          0          0          0          0          0          0          0          0
  root node        :          -          -      -          2          -          -          2          -          -          -          -          -
Constraints        :     Number  MaxNumber  #Separate #Propagate    #EnfoLP    #EnfoRelax  #EnfoPS    #Check   #ResProp    Cutoffs    DomReds       Cuts    Applied      Conss   Children
  benderslp        :          0          0          0          0          1          0          0         92          0          0          0          0          0          0          0
  integral         :          0          0          0          0          1          0          0         92          0          0          0          0          0          0          2
  linear           :       7822       7822          1         99          0          0          0         90          0          0          2          0          0          0          0
  benders          :          0          0          0          0          0          0          0         91          0          0          0          0          0          0          0
  countsols        :          0          0          0          0          0          0          0         91          0          0          0          0          0          0          0
  components       :          0          0          0          0          0          0          0          0          0          0          0          0          0          0          0
Constraint Timings :  TotalTime  SetupTime   Separate  Propagate     EnfoLP     EnfoPS     EnfoRelax   Check    ResProp    SB-Prop
  benderslp        :       0.00       0.00       0.00       0.00       0.00       0.00       0.00       0.00       0.00       0.00
  integral         :       2.65       0.00       0.00       0.00       2.65       0.00       0.00       0.00       0.00       0.00
  linear           :       0.04       0.01       0.01       0.01       0.00       0.00       0.00       0.01       0.00       0.01
  benders          :       0.00       0.00       0.00       0.00       0.00       0.00       0.00       0.00       0.00       0.00
  countsols        :       0.00       0.00       0.00       0.00       0.00       0.00       0.00       0.00       0.00       0.00
  components       :       0.00       0.00       0.00       0.00       0.00       0.00       0.00       0.00       0.00       0.00
Propagators        : #Propagate   #ResProp    Cutoffs    DomReds
  dualfix          :          2          0          0          0
  genvbounds       :          0          0          0          0
  nlobbt           :          0          0          0          0
  obbt             :          0          0          0          0
  probing          :          0          0          0          0
  pseudoobj        :          4          0          0          0
  redcost          :          2          0          0          0
  rootredcost      :          0          0          0          0
  symmetry         :          0          0          0          0
  vbounds          :          0          0          0          0
Propagator Timings :  TotalTime  SetupTime   Presolve  Propagate    ResProp    SB-Prop
  dualfix          :       0.00       0.00       0.00       0.00       0.00       0.00
  genvbounds       :       0.00       0.00       0.00       0.00       0.00       0.00
  nlobbt           :       0.00       0.00       0.00       0.00       0.00       0.00
  obbt             :       0.00       0.00       0.00       0.00       0.00       0.00
  probing          :       0.00       0.00       0.00       0.00       0.00       0.00
  pseudoobj        :       0.00       0.00       0.00       0.00       0.00       0.00
  redcost          :       0.00       0.00       0.00       0.00       0.00       0.00
  rootredcost      :       0.00       0.00       0.00       0.00       0.00       0.00
  symmetry         :       0.00       0.00       0.00       0.00       0.00       0.00
  vbounds          :       0.00       0.00       0.00       0.00       0.00       0.00
Conflict Analysis  :       Time      Calls    Success    DomReds  Conflicts   Literals    Reconvs ReconvLits   Dualrays   Nonzeros   LP Iters   (pool size: [--,--])
  propagation      :       0.00          0          0          -          0        0.0          0        0.0          -          -          -
  infeasible LP    :       0.00          0          0          -          0        0.0          0        0.0          0        0.0          0
  bound exceed. LP :       0.00          0          0          -          0        0.0          0        0.0          0        0.0          0
  strong branching :       0.00          0          0          -          0        0.0          0        0.0          -          -          0
  pseudo solution  :       0.00          0          0          -          0        0.0          0        0.0          -          -          -
  applied globally :       0.00          -          -          0          0        0.0          -          -          0          -          -
  applied locally  :          -          -          -          0          0        0.0          -          -          0          -          -
Separators         :   ExecTime  SetupTime      Calls    Cutoffs    DomReds       Cuts    Applied      Conss
  cut pool         :       0.00                     0          -          -          0          -          -    (maximal pool size: 0)
  aggregation      :       0.00       0.00          0          0          0          0          0          0
  > cmir           :          -          -          -          -          -          -          0          -
  > flowcover      :          -          -          -          -          -          -          0          -
  > knapsackcover  :          -          -          -          -          -          -          0          -
  cgmip            :       0.00       0.00          0          0          0          0          0          0
  clique           :       0.00       0.00          0          0          0          0          0          0
  closecuts        :       0.00       0.00          0          0          0          0          0          0
  convexproj       :       0.00       0.00          0          0          0          0          0          0
  disjunctive      :       0.00       0.00          0          0          0          0          0          0
  eccuts           :       0.00       0.00          0          0          0          0          0          0
  gauge            :       0.00       0.00          0          0          0          0          0          0
  gmi              :       0.00       0.00          0          0          0          0          0          0
  gomory           :       0.00       0.00          0          0          0          0          0          0
  > gomorymi       :          -          -          -          -          -          -          0          -
  > strongcg       :          -          -          -          -          -          -          0          -
  impliedbounds    :       0.00       0.00          0          0          0          0          0          0
  interminor       :       0.00       0.00          0          0          0          0          0          0
  intobj           :       0.00       0.00          0          0          0          0          0          0
  mcf              :       0.00       0.00          0          0          0          0          0          0
  minor            :       0.00       0.00          0          0          0          0          0          0
  mixing           :       0.00       0.00          0          0          0          0          0          0
  oddcycle         :       0.00       0.00          0          0          0          0          0          0
  rapidlearning    :       0.00       0.00          0          0          0          0          0          0
  rlt              :       0.00       0.00          0          0          0          0          0          0
  zerohalf         :       0.00       0.00          0          0          0          0          0          0
Cutselectors       :   ExecTime  SetupTime
  hybrid           :       0.00       0.00
Pricers            :   ExecTime  SetupTime      Calls       Vars
  problem variables:       0.00          -          0          0
Branching Rules    :   ExecTime  SetupTime   BranchLP  BranchExt   BranchPS    Cutoffs    DomReds       Cuts      Conss   Children
  allfullstrong    :       0.00       0.00          0          0          0          0          0          0          0          0
  cloud            :       0.00       0.00          0          0          0          0          0          0          0          0
  distribution     :       0.00       0.00          0          0          0          0          0          0          0          0
  fullstrong       :       0.00       0.00          0          0          0          0          0          0          0          0
  inference        :       0.00       0.00          0          0          0          0          0          0          0          0
  leastinf         :       0.00       0.00          0          0          0          0          0          0          0          0
  lookahead        :       0.00       0.00          0          0          0          0          0          0          0          0
  mostinf          :       0.00       0.00          0          0          0          0          0          0          0          0
  multaggr         :       0.00       0.00          0          0          0          0          0          0          0          0
  nodereopt        :       0.00       0.00          0          0          0          0          0          0          0          0
  pscost           :       0.00       0.00          0          0          0          0          0          0          0          0
  random           :       0.00       0.00          0          0          0          0          0          0          0          0
  relpscost        :       2.65       0.00          1          0          0          0          0          0          0          2
  vanillafullstrong:       0.00       0.00          0          0          0          0          0          0          0          0
Primal Heuristics  :   ExecTime  SetupTime      Calls      Found       Best
  LP solutions     :       0.00          -          -          0          0
  relax solutions  :       0.00          -          -          0          0
  pseudo solutions :       0.00          -          -          0          0
  strong branching :       0.01          -          -         90          3
  actconsdiving    :       0.00       0.00          0          0          0
  adaptivediving   :       0.00       0.00          0          0          0
  alns             :       0.00       0.00          0          0          0
  bound            :       0.00       0.00          0          0          0
  clique           :       0.00       0.00          0          0          0
  coefdiving       :       0.00       0.00          0          0          0
  completesol      :       0.00       0.00          0          0          0
  conflictdiving   :       0.00       0.00          0          0          0
  crossover        :       0.00       0.00          0          0          0
  dins             :       0.00       0.00          0          0          0
  distributiondivin:       0.00       0.00          0          0          0
  dps              :       0.00       0.00          0          0          0
  dualval          :       0.00       0.00          0          0          0
  farkasdiving     :       0.00       0.00          0          0          0
  feaspump         :       0.00       0.00          0          0          0
  fixandinfer      :       0.00       0.00          0          0          0
  fracdiving       :       0.00       0.00          0          0          0
  gins             :       0.00       0.00          0          0          0
  guideddiving     :       0.00       0.00          0          0          0
  indicator        :       0.00       0.00          0          0          0
  intdiving        :       0.00       0.00          0          0          0
  intshifting      :       0.00       0.00          0          0          0
  linesearchdiving :       0.00       0.00          0          0          0
  localbranching   :       0.00       0.00          0          0          0
  locks            :       0.00       0.00          0          0          0
  lpface           :       0.00       0.00          0          0          0
  mpec             :       0.00       0.00          0          0          0
  multistart       :       0.00       0.00          0          0          0
  mutation         :       0.00       0.00          0          0          0
  nlpdiving        :       0.00       0.00          0          0          0
  objpscostdiving  :       0.00       0.00          0          0          0
  octane           :       0.00       0.00          0          0          0
  ofins            :       0.00       0.00          0          0          0
  oneopt           :       0.00       0.00          0          0          0
  padm             :       0.00       0.00          0          0          0
  proximity        :       0.00       0.00          0          0          0
  pscostdiving     :       0.00       0.00          0          0          0
  randrounding     :       0.00       0.00          0          0          0
  rens             :       0.00       0.00          0          0          0
  reoptsols        :       0.00       0.00          0          0          0
  repair           :       0.00       0.00          0          0          0
  rins             :       0.00       0.00          0          0          0
  rootsoldiving    :       0.00       0.00          0          0          0
  rounding         :       0.00       0.00          0          0          0
  shiftandpropagate:       0.00       0.00          0          0          0
  shifting         :       0.00       0.00          0          0          0
  simplerounding   :       0.00       0.00          0          0          0
  subnlp           :       0.00       0.00          0          0          0
  trivial          :       0.00       0.00          0          0          0
  trivialnegation  :       0.00       0.00          0          0          0
  trustregion      :       0.00       0.00          0          0          0
  trysol           :       0.00       0.00          0          0          0
  twoopt           :       0.00       0.00          0          0          0
  undercover       :       0.00       0.00          0          0          0
  vbounds          :       0.00       0.00          0          0          0
  veclendiving     :       0.00       0.00          0          0          0
  zeroobj          :       0.00       0.00          0          0          0
  zirounding       :       0.00       0.00          0          0          0
  other solutions  :          -          -          -          0          -
Diving (single)    :      Calls      Nodes   LP Iters Backtracks  Conflicts   MinDepth   MaxDepth   AvgDepth  RoundSols  NLeafSols  MinSolDpt  MaxSolDpt  AvgSolDpt
  actconsdiving    :          0          -          -          -          -          -          -          -          -          -          -          -          -
  coefdiving       :          0          -          -          -          -          -          -          -          -          -          -          -          -
  conflictdiving   :          0          -          -          -          -          -          -          -          -          -          -          -          -
  distributiondivin:          0          -          -          -          -          -          -          -          -          -          -          -          -
  farkasdiving     :          0          -          -          -          -          -          -          -          -          -          -          -          -
  fracdiving       :          0          -          -          -          -          -          -          -          -          -          -          -          -
  guideddiving     :          0          -          -          -          -          -          -          -          -          -          -          -          -
  linesearchdiving :          0          -          -          -          -          -          -          -          -          -          -          -          -
  pscostdiving     :          0          -          -          -          -          -          -          -          -          -          -          -          -
  veclendiving     :          0          -          -          -          -          -          -          -          -          -          -          -          -
Diving (adaptive)  :      Calls      Nodes   LP Iters Backtracks  Conflicts   MinDepth   MaxDepth   AvgDepth  RoundSols  NLeafSols  MinSolDpt  MaxSolDpt  AvgSolDpt
  actconsdiving    :          0          -          -          -          -          -          -          -          -          -          -          -          -
  coefdiving       :          0          -          -          -          -          -          -          -          -          -          -          -          -
  conflictdiving   :          0          -          -          -          -          -          -          -          -          -          -          -          -
  distributiondivin:          0          -          -          -          -          -          -          -          -          -          -          -          -
  farkasdiving     :          0          -          -          -          -          -          -          -          -          -          -          -          -
  fracdiving       :          0          -          -          -          -          -          -          -          -          -          -          -          -
  guideddiving     :          0          -          -          -          -          -          -          -          -          -          -          -          -
  linesearchdiving :          0          -          -          -          -          -          -          -          -          -          -          -          -
  pscostdiving     :          0          -          -          -          -          -          -          -          -          -          -          -          -
  veclendiving     :          0          -          -          -          -          -          -          -          -          -          -          -          -
Neighborhoods      :      Calls  SetupTime  SolveTime SolveNodes       Sols       Best       Exp3  EpsGreedy        UCB TgtFixRate  Opt  Inf Node Stal  Sol  Usr Othr Actv
  rens             :          0       0.00       0.00          0          0          0    0.00000   -1.00000    1.00000      0.900    0    0    0    0    0    0    0    1
  rins             :          0       0.00       0.00          0          0          0    0.00000   -1.00000    1.00000      0.900    0    0    0    0    0    0    0    1
  mutation         :          0       0.00       0.00          0          0          0    0.00000   -1.00000    1.00000      0.900    0    0    0    0    0    0    0    1
  localbranching   :          0       0.00       0.00          0          0          0    0.00000   -1.00000    1.00000      0.900    0    0    0    0    0    0    0    1
  crossover        :          0       0.00       0.00          0          0          0    0.00000   -1.00000    1.00000      0.900    0    0    0    0    0    0    0    1
  proximity        :          0       0.00       0.00          0          0          0    0.00000   -1.00000    1.00000      0.900    0    0    0    0    0    0    0    1
  zeroobjective    :          0       0.00       0.00          0          0          0    0.00000   -1.00000    1.00000      0.900    0    0    0    0    0    0    0    1
  dins             :          0       0.00       0.00          0          0          0    0.00000   -1.00000    1.00000      0.900    0    0    0    0    0    0    0    1
  trustregion      :          0       0.00       0.00          0          0          0    0.00000   -1.00000    1.00000      0.900    0    0    0    0    0    0    0    0
LP                 :       Time      Calls Iterations  Iter/call   Iter/sec  Time-0-It Calls-0-It    ItLimit
  primal LP        :       0.00          0          0       0.00          -       0.00          0
  dual LP          :       0.32          1       1510    1510.00    4657.50       0.00          0
  lex dual LP      :       0.00          0          0       0.00          -
  barrier LP       :       0.00          0          0       0.00          -       0.00          0
  resolve instable :       0.00          0          0       0.00          -
  diving/probing LP:       0.00          0          0       0.00          -
  strong branching :       2.56         45      13328     296.18    5212.19          -          -          0
    (at root node) :          -         45      13328     296.18          -
  conflict analysis:       0.00          0          0       0.00          -
B&B Tree           :
  number of runs   :          1
  nodes            :          1 (1 internal, 0 leaves)
  feasible leaves  :          0
  infeas. leaves   :          0
  objective leaves :          0
  nodes (total)    :          1 (1 internal, 0 leaves)
  nodes left       :          2
  max depth        :          0
  max depth (total):          0
  backtracks       :          0 (0.0%)
  early backtracks :          0 (0.0%)
  nodes exc. ref.  :          0 (0.0%)
  delayed cutoffs  :          0
  repropagations   :          0 (0 domain reductions, 0 cutoffs)
  avg switch length:       1.00
  switching time   :       0.00
Estim. Tree Size   :         -1
Estimation Tree    : 3 nodes (1 visited, 1 internal, 0 leaves, 2 open), weight: 0.0000 completed 0.0000
Estimations        :      estim      value      trend resolution     smooth
  wbe              :         -1          -          -          -          -
  tree-profile     :         -1          -          -          -          -
  gap              :         -1    0.25496                     1           
  tree-weight      :         -1    0.00000                     1           
  leaf-frequency   :         -1   -0.50000                     1           
  ssg              :         -1    1.00000                     1           
  open-nodes       :         -1    2.00000                     1           
Root Node          :
  First LP value   : +2.76174903752728e+01
  First LP Iters   :       1510 (4534.66 Iter/sec)
  First LP Time    :       0.33
  Final Dual Bound : +2.80453263267650e+01
  Final Root Iters :       1510
  Root LP Estimate : +3.98745950036935e+01
Solution           :
  Solutions found  :         90 (3 improvements)
  First Solution   : +1.14000000000000e+02   (in run 1, after 1 nodes, 0.40 seconds, depth 2, found by <relaxation>)
  Gap First Sol.   :     312.78 %
  Gap Last Sol.    :     298.30 %
  Primal Bound     : +1.10000000000000e+02   (in run 1, after 1 nodes, 1.16 seconds, depth 2, found by <relaxation>)
  Dual Bound       : +2.80453263267650e+01
  Gap              :     292.22 %
Integrals          :      Total       Avg%
  primal-dual      :     236.27      78.40
  primal-ref       :          -          - (not evaluated)
  dual-ref         :          -          - (not evaluated)
